[[26, 67, 7, 8, 35, 19, 53, 14, 59, 66, 11, 65, 38, 10, 58, 72, 31, 39, 9, 25, 55, 18, 50, 32, 44, 3, 40, 12, 17, 51, 16, 24, 49, 23, 56], [41, 43, 42, 64, 22, 62, 73, 63, 33, 6, 68, 2, 30, 28, 74, 48, 61, 21, 47, 36, 69, 71, 60, 70, 20, 37, 5, 15, 57, 29, 45, 27, 13, 54, 52, 46, 34, 4, 75, 76]]